results_rootrelaxation/bin012_070_001.srr.sol
solution status: optimal solution found
objective value:                     7.84210526315789
_var725_                            0.210526315789474 	(obj:0)
_var750_                            0.210526315789474 	(obj:1)
_var751_                            0.736842105263158 	(obj:1)
_var755_                           0.0526315789473687 	(obj:2)
_var781_                            0.157894736842106 	(obj:2)
_var782_                             0.31578947368421 	(obj:0)
_var797_                             0.31578947368421 	(obj:1)
_var803_                            0.210526315789474 	(obj:1)
_var807_                           0.0526315789473686 	(obj:0)
_var808_                            0.368421052631579 	(obj:0)
_var810_                            0.368421052631579 	(obj:1)
_var812_                            0.210526315789473 	(obj:1)
_var818_                            0.210526315789474 	(obj:0)
_var827_                            0.526315789473684 	(obj:0)
_var828_                            0.210526315789474 	(obj:1)
_var835_                            0.157894736842105 	(obj:0)
_var845_                            0.421052631578947 	(obj:0)
_var847_                            0.105263157894736 	(obj:2)
_var849_                           0.0526315789473681 	(obj:1)
_var853_                            0.157894736842105 	(obj:1)
_var857_                            0.368421052631579 	(obj:0)
_var858_                            0.210526315789474 	(obj:1)
_var862_                            0.157894736842105 	(obj:0)
_var863_                            0.210526315789473 	(obj:2)
_var864_                            0.263157894736842 	(obj:1)
_var870_                            0.368421052631579 	(obj:0)
_var871_                            0.210526315789474 	(obj:1)
_var873_                             0.31578947368421 	(obj:0)
_var874_                            0.105263157894737 	(obj:0)
_var883_                           0.0526315789473686 	(obj:1)
_var886_                             0.36842105263158 	(obj:2)
_var888_                            0.473684210526316 	(obj:0)
_var890_                            0.105263157894737 	(obj:1)
_var897_                            0.263157894736842 	(obj:2)
_var899_                            0.157894736842106 	(obj:1)
_var908_                             0.31578947368421 	(obj:1)
_var909_                            0.210526315789474 	(obj:1)
_var912_                            0.157894736842106 	(obj:0)
_var915_                            0.157894736842105 	(obj:1)
_var918_                            0.052631578947368 	(obj:1)
_var919_                            0.210526315789474 	(obj:1)
_var921_                            0.157894736842106 	(obj:1)
_var925_                           0.0526315789473685 	(obj:1)
_var930_                            0.157894736842106 	(obj:0)
_var931_                            0.105263157894737 	(obj:1)
_var941_                            0.157894736842105 	(obj:0)
_var946_                            0.157894736842104 	(obj:1)
_var949_                            0.157894736842105 	(obj:1)
_var950_                           0.0526315789473684 	(obj:1)
_var952_                            0.105263157894737 	(obj:2)
_var954_                           0.0526315789473689 	(obj:2)
_var955_                           0.0526315789473686 	(obj:2)
